&CONTROL
  calculation  = "scf",
  pseudo_dir   = "/mnt/cephfs/home/armin5/pseudopotential",
  outdir  = "./",
  tstress  = .true.,
  tprnfor  = .true.,
  disk_io  = ".none.",
/
&SYSTEM
  ibrav = 0,
  nat       = 432,
  ntyp       = 2,
  ecutwfc   = 100,
  ecutrho   = 400,
/
&ELECTRONS
  conv_thr    = 1.D-12,
  diagonalization       = "david",
  mixing_beta    = 0.7,
  electron_maxstep    = 200,
/
K_POINTS (automatic)
1 1 1 0 0 0
