&CONTROL
  calculation  = "scf",
  restart_mode  = "from_scratch",
  verbosity  = "high",
  pseudo_dir   = "/mnt/cephfs/home/armin5/pseudopotential",
  outdir  = "./",
  prefix       = "quartz",
  tstress  = .true.,
  tprnfor  = .true.,
  nstep  = 1000,
/
&SYSTEM
  ibrav = 0,
  nat       = 9,
  ntyp       = 2,
  ecutwfc   = 100,
  ecutrho   = 400,
/
&ELECTRONS
  conv_thr    = 1.D-12,
  diagonalization       = "david",
  mixing_beta    = 0.7,
  electron_maxstep    = 200,
/
ATOMIC_SPECIES
  Si  28.0855  Si.pbe-n-kjpaw_psl.1.0.0.UPF
  O  15.9994  O.pbe-n-kjpaw_psl.1.0.0.UPF
K_POINTS (automatic)
6 6 6  0 0 0
CELL_PARAMETERS (angstrom)
5.035154605 0.000000000 -0.000000000
-2.517577302 4.360571800 0.000000000
-0.000000000 -0.000000000 5.523394240
ATOMIC_POSITIONS (crystal)

Si	0.5219713302	0.5219713302	-0.0
Si	0.4780286698	-0.0	0.6666666667
Si	-0.0	0.4780286698	0.3333333333
O	0.5848829943	0.8377628523	0.8695745014
O	0.1622371477	0.747120142	0.5362411714
O	0.252879858	0.4151170057	0.2029078314
O	0.8377628523	0.5848829943	0.1304254986
O	0.747120142	0.1622371477	0.4637588286
O	0.4151170057	0.252879858	0.7970921686
